!   File created by MacMolPlt 7.7.3
 $CONTRL SCFTYP=RHF RUNTYP=ENERGY EXETYP=RUN MPLEVL=2 MAXIT=30 MULT=1 ISPHER=1 
    $END
 $SYSTEM TIMLIM=525600 MEMORY=65536000 MEMDDI=3750 $END
 $BASIS GBASIS=CCD $END
 $GUESS GUESS=MOREAD NORB=5 $END
 $SCF DIRSCF=.TRUE. $END
 $DATA 
Title
C1
O     8.0    -0.05922    -0.06452     0.00000
H     1.0    -0.47260     0.79970    -0.00000
H     1.0     1.91266     0.22460     0.00000
 $END
 $VEC
 1  1 1.00067794E+00 4.18000011E-04-2.74999999E-03-9.00000014E-05 1.56000000E-03
 1  2-0.00000000E+00-1.38999996E-04-4.88999998E-04-0.00000000E+00-3.39999999E-04
 1  3 2.26999997E-04 1.13000002E-04-2.80999986E-04-0.00000000E+00-0.00000000E+00
 1  4-3.15000012E-04 6.20000006E-04-3.23999993E-04 7.37000024E-04-0.00000000E+00
 1  5 2.49999994E-05 2.49000004E-04-1.88000005E-04-2.09999998E-05-0.00000000E+00
 2  1-4.81399987E-03 4.64006007E-01 4.55549002E-01-3.92379984E-02 7.34110028E-02
 2  2-0.00000000E+00 2.43499991E-03-4.37999988E-04-0.00000000E+00-2.34599994E-03
 2  3 5.12199989E-03-2.77599995E-03-4.64700023E-03-0.00000000E+00-0.00000000E+00
 2  4 2.15387002E-01 1.34119997E-02 1.86850000E-02-3.97309996E-02-0.00000000E+00
 2  5 1.98219996E-02 1.44870002E-02-4.23699990E-03 2.16999993E-04-0.00000000E+00
 3  1 3.17399995E-03-1.37227997E-01-3.21851999E-01-1.92596003E-01 4.90363002E-01
 3  2 0.00000000E+00-1.02427997E-01 2.71706998E-01 0.00000000E+00-8.68200045E-03
 3  3 1.90490000E-02-1.03669995E-02-1.25700003E-02 0.00000000E+00 0.00000000E+00
 3  4 3.76985013E-01 7.38129988E-02 1.90779995E-02-3.51219997E-02 0.00000000E+00
 3  5-4.30449992E-02-5.07300012E-02 6.91600004E-03 3.97100020E-03 0.00000000E+00
 4  1 0.00000000E+00 0.00000000E+00 0.00000000E+00 0.00000000E+00 0.00000000E+00
 4  2 6.52872980E-01 0.00000000E+00 0.00000000E+00 4.83974010E-01 0.00000000E+00
 4  3 0.00000000E+00 0.00000000E+00 0.00000000E+00-3.32699995E-03 1.53400004E-02
 4  4 0.00000000E+00 0.00000000E+00 0.00000000E+00 0.00000000E+00 3.28430012E-02
 4  5 0.00000000E+00 0.00000000E+00 0.00000000E+00 0.00000000E+00 5.52800018E-03
 5  1-6.78100018E-03-5.36810011E-02-5.89670017E-02 3.81336004E-01 2.07850993E-01
 5  2 0.00000000E+00 3.33896011E-01 1.83788002E-01 0.00000000E+00 2.09000008E-03
 5  3 4.14199987E-03-6.23300020E-03 1.07349996E-02 0.00000000E+00 0.00000000E+00
 5  4-8.90500005E-03 7.04200007E-03 1.71380006E-02 1.23589998E-02 0.00000000E+00
 5  5 2.96813011E-01 3.46592993E-01-1.39520001E-02 1.92800001E-03 0.00000000E+00
 $END

