!   File created by MacMolPlt 7.7.3
 $CONTRL SCFTYP=RHF RUNTYP=ENERGY MAXIT=30 MULT=1 ISPHER=1 $END
 $SYSTEM TIMLIM=525600 MEMORY=65536000 MEMDDI=3750 $END
 $BASIS GBASIS=CCD $END
 $SCF DIRSCF=.TRUE. FDIFF=.FALSE. NCONV=7 $END
 $DATA 
Title
C1
O     8.0    -0.05922    -0.06452     0.00000
H     1.0    -0.47260     0.79970    -0.00000
H     1.0     1.91266     0.22460     0.00000
 $END
