!   File created by MacMolPlt 7.7.3
 $CONTRL SCFTYP=RHF RUNTYP=ENERGY EXETYP=RUN CCTYP=CCSD(T) MAXIT=30 MULT=1 
    ISPHER=1 $END
 $SYSTEM TIMLIM=525600 MEMORY=65536000 MEMDDI=3750 $END
 $BASIS GBASIS=CCD $END
 $GUESS GUESS=MOREAD NORB=5 $END
 $SCF DIRSCF=.TRUE. $END
 $DATA 
Title
C1
O     8.0     0.00000    -0.06564     0.00000
H     1.0    -0.75737     0.52101     0.00000
H     1.0     0.75737     0.52101     0.00000
 $END
 $VEC
 1  1 1.00089800E+00 1.17099995E-03-2.67000007E-03-0.00000000E+00 1.76100002E-03
 1  2-0.00000000E+00-0.00000000E+00-4.86000004E-04-0.00000000E+00 1.13000002E-04
 1  3 1.10000001E-05-1.23999998E-04-0.00000000E+00-0.00000000E+00-0.00000000E+00
 1  4-2.37000000E-04 4.21000004E-04-5.69000025E-04 4.80999995E-04-0.00000000E+00
 1  5-2.37000000E-04 4.21000004E-04 5.69000025E-04 4.80999995E-04-0.00000000E+00
 2  1-8.18500016E-03 4.42961991E-01 3.76201987E-01-0.00000000E+00 7.87210017E-02
 2  2-0.00000000E+00-0.00000000E+00-1.29920002E-02-0.00000000E+00 1.97999994E-03
 2  3 1.24500005E-03-3.22500011E-03-0.00000000E+00-0.00000000E+00-0.00000000E+00
 2  4 1.93315998E-01 1.01020001E-02 3.72769982E-02-2.04750001E-02-0.00000000E+00
 2  5 1.93315998E-01 1.01020001E-02-3.72769982E-02-2.04750001E-02-0.00000000E+00
 3  1-0.00000000E+00-0.00000000E+00-0.00000000E+00 4.89895999E-01-0.00000000E+00
 3  2-0.00000000E+00 2.22139001E-01-0.00000000E+00-0.00000000E+00-0.00000000E+00
 3  3-0.00000000E+00-0.00000000E+00 2.67869998E-02-0.00000000E+00-0.00000000E+00
 3  4-3.27823013E-01-8.99379998E-02-2.33110003E-02 3.26620005E-02-0.00000000E+00
 3  5 3.27823013E-01 8.99379998E-02-2.33110003E-02-3.26620005E-02-0.00000000E+00
 4  1 2.16699997E-03-1.50379002E-01-3.49662989E-01-0.00000000E+00 5.45377016E-01
 4  2-0.00000000E+00-0.00000000E+00 3.65321994E-01-0.00000000E+00-4.95600002E-03
 4  3 1.78689994E-02-1.29129998E-02-0.00000000E+00-0.00000000E+00-0.00000000E+00
 4  4 2.06447005E-01 4.04650010E-02 3.17620002E-02 7.50900013E-03-0.00000000E+00
 4  5 2.06447005E-01 4.04650010E-02-3.17620002E-02 7.50900013E-03-0.00000000E+00
 5  1 0.00000000E+00 0.00000000E+00 0.00000000E+00 0.00000000E+00 0.00000000E+00
 5  2 6.31199002E-01 0.00000000E+00 0.00000000E+00 4.95680004E-01 0.00000000E+00
 5  3 0.00000000E+00 0.00000000E+00 0.00000000E+00 0.00000000E+00 1.81990005E-02
 5  4 0.00000000E+00 0.00000000E+00 0.00000000E+00 0.00000000E+00 3.10520008E-02
 5  5 0.00000000E+00 0.00000000E+00 0.00000000E+00 0.00000000E+00 3.10520008E-02
 $END
