!   File created by MacMolPlt 7.7.3
 $CONTRL SCFTYP=RHF RUNTYP=ENERGY MAXIT=30 MULT=1 ISPHER=1 $END
 $SYSTEM TIMLIM=525600 MEMORY=65536000 MEMDDI=3750 $END
 $BASIS GBASIS=CCD $END
 $SCF DIRSCF=.TRUE. FDIFF=.FALSE. NCONV=7 $END
 $DATA 
Title
C1
O     8.0     0.00000    -0.06564     0.00000
H     1.0    -0.75737     0.52101     0.00000
H     1.0     0.75737     0.52101     0.00000
 $END
